true false true
presolving:
presolving (0 rounds: 0 fast, 0 medium, 0 exhaustive):
 0 deleted vars, 0 deleted constraints, 0 added constraints, 0 tightened bounds, 0 added holes, 0 changed sides, 0 changed coefficients
 0 implications, 0 cliques
presolved problem has 76 variables (76 bin, 0 int, 0 impl, 0 cont) and 65 constraints
     65 constraints of type <linear>
transformed objective value is always integral (scale: 1)
Presolving Time: 0.00

 time | node  | left  |LP iter|LP it/n|mem/heur|mdpt |vars |cons |rows |cuts |sepa|confs|strbr|  dualbound   | primalbound  |  gap   | compl. 
p 0.0s|     1 |     0 |     0 |     - |shiftand|   0 |  76 |  65 |  65 |   0 |  0 |   0 |   0 |      --      | 1.100000e+01 |    Inf | unknown
 time | node  | left  |LP iter|LP it/n|mem/heur|mdpt |vars |cons |rows |cuts |sepa|confs|strbr|  dualbound   | primalbound  |  gap   | compl. 
  0.1s|     1 |     0 |    33 |     - |  1401k |   0 | 228 |  65 |  65 |   0 |  0 |   0 |   0 | 1.000000e+00 | 1.100000e+01 |1000.00%| unknown
 time | node  | left  |LP iter|LP it/n|mem/heur|mdpt |vars |cons |rows |cuts |sepa|confs|strbr|  dualbound   | primalbound  |  gap   | compl. 
 2184s|     1 |     0 |  1162 |     - |  7265k |   0 |2169 |  65 |  65 |   0 |  0 |   0 |   0 | 1.000000e+01 | 1.100000e+01 |  10.00%| unknown
 time | node  | left  |LP iter|LP it/n|mem/heur|mdpt |vars |cons |rows |cuts |sepa|confs|strbr|  dualbound   | primalbound  |  gap   | compl. 
 2185s|     1 |     2 |  1617 |     - |  7994k |   0 |2169 |  65 |  65 |   0 |  1 |   0 |   0 | 1.000000e+01 | 1.100000e+01 |  10.00%| unknown
 time | node  | left  |LP iter|LP it/n|mem/heur|mdpt |vars |cons |rows |cuts |sepa|confs|strbr|  dualbound   | primalbound  |  gap   | compl. 
 2185s|     2 |     3 |  1622 |   5.0 |  8121k |   1 |2169 |  65 |  65 |   0 |  1 |   0 |   0 | 1.000000e+01 | 1.100000e+01 |  10.00%| unknown
 time | node  | left  |LP iter|LP it/n|mem/heur|mdpt |vars |cons |rows |cuts |sepa|confs|strbr|  dualbound   | primalbound  |  gap   | compl. 
 2185s|     3 |     4 |  1677 |  30.0 |  8339k |   1 |2169 |  65 |  65 |   0 |  1 |   0 |   0 | 1.000000e+01 | 1.100000e+01 |  10.00%| unknown
 time | node  | left  |LP iter|LP it/n|mem/heur|mdpt |vars |cons |rows |cuts |sepa|confs|strbr|  dualbound   | primalbound  |  gap   | compl. 
 2185s|     4 |     5 |  1711 |  31.3 |  8360k |   2 |2169 |  65 |  65 |   0 |  1 |   0 |   0 | 1.000000e+01 | 1.100000e+01 |  10.00%| unknown
 time | node  | left  |LP iter|LP it/n|mem/heur|mdpt |vars |cons |rows |cuts |sepa|confs|strbr|  dualbound   | primalbound  |  gap   | compl. 
 2185s|     5 |     6 |  1726 |  27.2 |  8628k |   2 |2169 |  65 |  65 |   0 |  1 |   0 |   0 | 1.000000e+01 | 1.100000e+01 |  10.00%| unknown
 time | node  | left  |LP iter|LP it/n|mem/heur|mdpt |vars |cons |rows |cuts |sepa|confs|strbr|  dualbound   | primalbound  |  gap   | compl. 
 2185s|     6 |     7 |  1735 |  23.6 |  8654k |   3 |2169 |  65 |  65 |   0 |  1 |   0 |   0 | 1.000000e+01 | 1.100000e+01 |  10.00%| unknown
 time | node  | left  |LP iter|LP it/n|mem/heur|mdpt |vars |cons |rows |cuts |sepa|confs|strbr|  dualbound   | primalbound  |  gap   | compl. 
 2185s|     7 |     8 |  1822 |  34.2 |  8657k |   4 |2169 |  65 |  65 |   0 |  1 |   0 |   0 | 1.000000e+01 | 1.100000e+01 |  10.00%| unknown
 time | node  | left  |LP iter|LP it/n|mem/heur|mdpt |vars |cons |rows |cuts |sepa|confs|strbr|  dualbound   | primalbound  |  gap   | compl. 
 2186s|     8 |     9 |  2680 | 151.9 |  8737k |   4 |2169 |  65 |  65 |   0 |  1 |   0 |   0 | 1.000000e+01 | 1.100000e+01 |  10.00%| unknown
 time | node  | left  |LP iter|LP it/n|mem/heur|mdpt |vars |cons |rows |cuts |sepa|confs|strbr|  dualbound   | primalbound  |  gap   | compl. 
 2186s|     9 |    10 |  2767 | 143.8 |  8744k |   4 |2169 |  65 |  65 |   0 |  1 |   0 |   0 | 1.000000e+01 | 1.100000e+01 |  10.00%| unknown
 time | node  | left  |LP iter|LP it/n|mem/heur|mdpt |vars |cons |rows |cuts |sepa|confs|strbr|  dualbound   | primalbound  |  gap   | compl. 
 2186s|    10 |    11 |  2836 | 135.4 |  8751k |   4 |2169 |  65 |  65 |   0 |  1 |   0 |   0 | 1.000000e+01 | 1.100000e+01 |  10.00%| unknown
 time | node  | left  |LP iter|LP it/n|mem/heur|mdpt |vars |cons |rows |cuts |sepa|confs|strbr|  dualbound   | primalbound  |  gap   | compl. 
 2186s|    11 |    12 |  2946 | 132.9 |  8752k |   5 |2169 |  65 |  65 |   0 |  1 |   0 |   0 | 1.000000e+01 | 1.100000e+01 |  10.00%| unknown
 time | node  | left  |LP iter|LP it/n|mem/heur|mdpt |vars |cons |rows |cuts |sepa|confs|strbr|  dualbound   | primalbound  |  gap   | compl. 
 2187s|    12 |    13 |  2994 | 125.2 |  8753k |   5 |2169 |  65 |  65 |   0 |  1 |   0 |   0 | 1.000000e+01 | 1.100000e+01 |  10.00%| unknown
 time | node  | left  |LP iter|LP it/n|mem/heur|mdpt |vars |cons |rows |cuts |sepa|confs|strbr|  dualbound   | primalbound  |  gap   | compl. 
 2187s|    13 |    14 |  3008 | 115.9 |  8760k |   5 |2169 |  65 |  65 |   0 |  1 |   0 |   0 | 1.000000e+01 | 1.100000e+01 |  10.00%| unknown
 time | node  | left  |LP iter|LP it/n|mem/heur|mdpt |vars |cons |rows |cuts |sepa|confs|strbr|  dualbound   | primalbound  |  gap   | compl. 
 2187s|    14 |    15 |  3068 | 111.6 |  8760k |   5 |2169 |  65 |  65 |   0 |  1 |   0 |   0 | 1.000000e+01 | 1.100000e+01 |  10.00%| unknown
 time | node  | left  |LP iter|LP it/n|mem/heur|mdpt |vars |cons |rows |cuts |sepa|confs|strbr|  dualbound   | primalbound  |  gap   | compl. 
 2187s|    15 |    16 |  3087 | 105.0 |  8763k |   6 |2169 |  65 |  65 |   0 |  1 |   0 |   0 | 1.000000e+01 | 1.100000e+01 |  10.00%| unknown
 time | node  | left  |LP iter|LP it/n|mem/heur|mdpt |vars |cons |rows |cuts |sepa|confs|strbr|  dualbound   | primalbound  |  gap   | compl. 
 2188s|    16 |    17 |  3116 |  99.9 |  8764k |   7 |2169 |  65 |  65 |   0 |  1 |   0 |   0 | 1.000000e+01 | 1.100000e+01 |  10.00%| unknown
 time | node  | left  |LP iter|LP it/n|mem/heur|mdpt |vars |cons |rows |cuts |sepa|confs|strbr|  dualbound   | primalbound  |  gap   | compl. 
 2188s|    17 |    18 |  3334 | 107.3 |  8766k |   7 |2169 |  65 |  65 |   0 |  1 |   0 |   0 | 1.000000e+01 | 1.100000e+01 |  10.00%| unknown
 time | node  | left  |LP iter|LP it/n|mem/heur|mdpt |vars |cons |rows |cuts |sepa|confs|strbr|  dualbound   | primalbound  |  gap   | compl. 
 2189s|    18 |    19 |  3695 | 122.2 |  9183k |   7 |2258 |  65 |  65 |   0 |  1 |   0 |   0 | 1.000000e+01 | 1.100000e+01 |  10.00%| unknown
 time | node  | left  |LP iter|LP it/n|mem/heur|mdpt |vars |cons |rows |cuts |sepa|confs|strbr|  dualbound   | primalbound  |  gap   | compl. 
 2189s|    19 |    20 |  3744 | 118.2 |  9188k |   8 |2258 |  65 |  65 |   0 |  1 |   0 |   0 | 1.000000e+01 | 1.100000e+01 |  10.00%| unknown
 time | node  | left  |LP iter|LP it/n|mem/heur|mdpt |vars |cons |rows |cuts |sepa|confs|strbr|  dualbound   | primalbound  |  gap   | compl. 
 2190s|    20 |    21 |  3821 | 116.0 |  9194k |   8 |2258 |  65 |  65 |   0 |  1 |   0 |   0 | 1.000000e+01 | 1.100000e+01 |  10.00%| unknown
 time | node  | left  |LP iter|LP it/n|mem/heur|mdpt |vars |cons |rows |cuts |sepa|confs|strbr|  dualbound   | primalbound  |  gap   | compl. 
 2190s|    21 |    22 |  4010 | 119.7 |  9198k |   9 |2258 |  65 |  65 |   0 |  1 |   0 |   0 | 1.000000e+01 | 1.100000e+01 |  10.00%| unknown
 time | node  | left  |LP iter|LP it/n|mem/heur|mdpt |vars |cons |rows |cuts |sepa|confs|strbr|  dualbound   | primalbound  |  gap   | compl. 
 2190s|    22 |    23 |  4361 | 130.7 |  9199k |   9 |2258 |  65 |  65 |   0 |  1 |   0 |   0 | 1.000000e+01 | 1.100000e+01 |  10.00%| unknown
 time | node  | left  |LP iter|LP it/n|mem/heur|mdpt |vars |cons |rows |cuts |sepa|confs|strbr|  dualbound   | primalbound  |  gap   | compl. 
 2191s|    23 |    24 |  4405 | 126.7 |  9206k |   9 |2258 |  65 |  65 |   0 |  1 |   0 |   0 | 1.000000e+01 | 1.100000e+01 |  10.00%| unknown
 time | node  | left  |LP iter|LP it/n|mem/heur|mdpt |vars |cons |rows |cuts |sepa|confs|strbr|  dualbound   | primalbound  |  gap   | compl. 
 2191s|    24 |    25 |  4763 | 136.8 |  9209k |   9 |2333 |  65 |  65 |   0 |  1 |   0 |   0 | 1.000000e+01 | 1.100000e+01 |  10.00%| unknown
 time | node  | left  |LP iter|LP it/n|mem/heur|mdpt |vars |cons |rows |cuts |sepa|confs|strbr|  dualbound   | primalbound  |  gap   | compl. 
 2192s|    25 |    26 |  4919 | 137.6 |  9215k |   9 |2333 |  65 |  65 |   0 |  1 |   0 |   0 | 1.000000e+01 | 1.100000e+01 |  10.00%| unknown
 time | node  | left  |LP iter|LP it/n|mem/heur|mdpt |vars |cons |rows |cuts |sepa|confs|strbr|  dualbound   | primalbound  |  gap   | compl. 
 2192s|    26 |    27 |  5022 | 136.2 |  9217k |   9 |2333 |  65 |  65 |   0 |  1 |   0 |   0 | 1.000000e+01 | 1.100000e+01 |  10.00%| unknown
 time | node  | left  |LP iter|LP it/n|mem/heur|mdpt |vars |cons |rows |cuts |sepa|confs|strbr|  dualbound   | primalbound  |  gap   | compl. 
 2192s|    27 |    28 |  5098 | 133.9 |  9223k |   9 |2333 |  65 |  65 |   0 |  1 |   0 |   0 | 1.000000e+01 | 1.100000e+01 |  10.00%| unknown
 time | node  | left  |LP iter|LP it/n|mem/heur|mdpt |vars |cons |rows |cuts |sepa|confs|strbr|  dualbound   | primalbound  |  gap   | compl. 
 2193s|    28 |    29 |  5161 | 131.3 |  9226k |   9 |2333 |  65 |  65 |   0 |  1 |   0 |   0 | 1.000000e+01 | 1.100000e+01 |  10.00%| unknown
 time | node  | left  |LP iter|LP it/n|mem/heur|mdpt |vars |cons |rows |cuts |sepa|confs|strbr|  dualbound   | primalbound  |  gap   | compl. 
 2193s|    29 |    30 |  5205 | 128.1 |  9753k |   9 |2333 |  65 |  65 |   0 |  1 |   0 |   0 | 1.000000e+01 | 1.100000e+01 |  10.00%| unknown
 time | node  | left  |LP iter|LP it/n|mem/heur|mdpt |vars |cons |rows |cuts |sepa|confs|strbr|  dualbound   | primalbound  |  gap   | compl. 
 2193s|    30 |    31 |  5233 | 124.7 |  9755k |   9 |2333 |  65 |  65 |   0 |  1 |   0 |   0 | 1.000000e+01 | 1.100000e+01 |  10.00%| unknown
 time | node  | left  |LP iter|LP it/n|mem/heur|mdpt |vars |cons |rows |cuts |sepa|confs|strbr|  dualbound   | primalbound  |  gap   | compl. 
 2194s|    31 |    32 |  5289 | 122.4 |  9761k |   9 |2333 |  65 |  65 |   0 |  1 |   0 |   0 | 1.000000e+01 | 1.100000e+01 |  10.00%| unknown
 time | node  | left  |LP iter|LP it/n|mem/heur|mdpt |vars |cons |rows |cuts |sepa|confs|strbr|  dualbound   | primalbound  |  gap   | compl. 
 2194s|    32 |    33 |  5307 | 119.0 |  9770k |  10 |2333 |  65 |  65 |   0 |  1 |   0 |   0 | 1.000000e+01 | 1.100000e+01 |  10.00%| unknown
 time | node  | left  |LP iter|LP it/n|mem/heur|mdpt |vars |cons |rows |cuts |sepa|confs|strbr|  dualbound   | primalbound  |  gap   | compl. 
 2194s|    33 |    34 |  5630 | 125.4 |  9773k |  11 |2333 |  65 |  65 |   0 |  1 |   0 |   0 | 1.000000e+01 | 1.100000e+01 |  10.00%| unknown
 time | node  | left  |LP iter|LP it/n|mem/heur|mdpt |vars |cons |rows |cuts |sepa|confs|strbr|  dualbound   | primalbound  |  gap   | compl. 
 2195s|    34 |    35 |  5671 | 122.8 |  9776k |  11 |2333 |  65 |  65 |   0 |  1 |   0 |   0 | 1.000000e+01 | 1.100000e+01 |  10.00%| unknown
 time | node  | left  |LP iter|LP it/n|mem/heur|mdpt |vars |cons |rows |cuts |sepa|confs|strbr|  dualbound   | primalbound  |  gap   | compl. 
 2195s|    35 |    36 |  5690 | 119.8 |  9785k |  11 |2333 |  65 |  65 |   0 |  1 |   0 |   0 | 1.000000e+01 | 1.100000e+01 |  10.00%| unknown
 time | node  | left  |LP iter|LP it/n|mem/heur|mdpt |vars |cons |rows |cuts |sepa|confs|strbr|  dualbound   | primalbound  |  gap   | compl. 
 2196s|    36 |    37 |  5715 | 117.1 |  9785k |  12 |2333 |  65 |  65 |   0 |  1 |   0 |   0 | 1.000000e+01 | 1.100000e+01 |  10.00%| unknown
 time | node  | left  |LP iter|LP it/n|mem/heur|mdpt |vars |cons |rows |cuts |sepa|confs|strbr|  dualbound   | primalbound  |  gap   | compl. 
 2197s|    37 |    38 |  5870 | 118.1 |    10M |  13 |2476 |  65 |  65 |   0 |  1 |   0 |   0 | 1.000000e+01 | 1.100000e+01 |  10.00%| unknown
 time | node  | left  |LP iter|LP it/n|mem/heur|mdpt |vars |cons |rows |cuts |sepa|confs|strbr|  dualbound   | primalbound  |  gap   | compl. 
 2197s|    38 |    39 |  6344 | 127.8 |    10M |  14 |2476 |  65 |  65 |   0 |  1 |   0 |   0 | 1.000000e+01 | 1.100000e+01 |  10.00%| unknown
 time | node  | left  |LP iter|LP it/n|mem/heur|mdpt |vars |cons |rows |cuts |sepa|confs|strbr|  dualbound   | primalbound  |  gap   | compl. 
 2197s|    39 |    40 |  6422 | 126.4 |    10M |  14 |2476 |  65 |  65 |   0 |  1 |   0 |   0 | 1.000000e+01 | 1.100000e+01 |  10.00%| unknown
 time | node  | left  |LP iter|LP it/n|mem/heur|mdpt |vars |cons |rows |cuts |sepa|confs|strbr|  dualbound   | primalbound  |  gap   | compl. 
 2198s|    40 |    41 |  6427 | 123.3 |    10M |  14 |2476 |  65 |  65 |   0 |  1 |   0 |   0 | 1.000000e+01 | 1.100000e+01 |  10.00%| unknown
 time | node  | left  |LP iter|LP it/n|mem/heur|mdpt |vars |cons |rows |cuts |sepa|confs|strbr|  dualbound   | primalbound  |  gap   | compl. 
 2198s|    41 |    42 |  6434 | 120.4 |    10M |  15 |2476 |  65 |  65 |   0 |  1 |   0 |   0 | 1.000000e+01 | 1.100000e+01 |  10.00%| unknown
 time | node  | left  |LP iter|LP it/n|mem/heur|mdpt |vars |cons |rows |cuts |sepa|confs|strbr|  dualbound   | primalbound  |  gap   | compl. 
 2199s|    42 |    43 |  6439 | 117.6 |    10M |  16 |2476 |  65 |  65 |   0 |  1 |   0 |   0 | 1.000000e+01 | 1.100000e+01 |  10.00%| unknown
 time | node  | left  |LP iter|LP it/n|mem/heur|mdpt |vars |cons |rows |cuts |sepa|confs|strbr|  dualbound   | primalbound  |  gap   | compl. 
 2199s|    43 |    44 |  6459 | 115.3 |    10M |  17 |2476 |  65 |  65 |   0 |  1 |   0 |   0 | 1.000000e+01 | 1.100000e+01 |  10.00%| unknown
 time | node  | left  |LP iter|LP it/n|mem/heur|mdpt |vars |cons |rows |cuts |sepa|confs|strbr|  dualbound   | primalbound  |  gap   | compl. 
 2200s|    44 |    45 |  6463 | 112.7 |    10M |  18 |2476 |  65 |  65 |   0 |  1 |   0 |   0 | 1.000000e+01 | 1.100000e+01 |  10.00%| unknown
 time | node  | left  |LP iter|LP it/n|mem/heur|mdpt |vars |cons |rows |cuts |sepa|confs|strbr|  dualbound   | primalbound  |  gap   | compl. 
 2200s|    45 |    46 |  6835 | 118.6 |    11M |  19 |2583 |  65 |  65 |   0 |  1 |   0 |   0 | 1.000000e+01 | 1.100000e+01 |  10.00%| unknown
 time | node  | left  |LP iter|LP it/n|mem/heur|mdpt |vars |cons |rows |cuts |sepa|confs|strbr|  dualbound   | primalbound  |  gap   | compl. 
L2201s|    46 |     0 |  6853 | 116.4 |    alns|  20 |2583 |  65 |  65 |   0 |  1 |   0 |   0 | 1.000000e+01 | 1.000000e+01 |   0.00%| 100.00%

SCIP Status        : problem is solved [optimal solution found]
Solving Time (sec) : 2200.84
Solving Nodes      : 46
Primal Bound       : +1.00000000000000e+01 (5 solutions)
Dual Bound         : +1.00000000000000e+01
Gap                : 0.00 %
Running with parallel: True bidir: False symbreak: True
Number of Nodes:  65
47.298680018206646% holds
starting cheapest insertion heuristic
Heuristic without TSP improvement:  12
Heuristic without TSP improvement time:  0.1
Heuristic Sol:  12
Heuristic total time:  0.3
[[64, 63, 0, 41, 51, 2, 52, 33, 11, 8, 49], [62, 50, 53, 16, 34, 7], [61, 31, 43, 18, 44, 24, 29, 54, 20], [60, 25, 4, 56, 10, 23], [59, 36, 21, 58, 55, 15, 27], [57, 19, 22, 32, 13], [48, 3, 30, 39, 1, 38, 28], [47, 37, 45, 17, 46, 6], [42, 12, 35], [40, 26], [14, 9], [5]]
Instance path:  /home/htc/mghannam/SCRATCH/lccp-rust/data/at84_ftv64.npcc
Timelimit:  7200
Heuristic without TSP improvement:  12
Heuristic without TSP improvement time:  0.1
Heuristic Sol:  11
Heuristic total time:  0.6
at 1 zero_duals: 54
at1, LP obj: 11.0 n_added_paths: 152
at 1 zero_duals: 45
at1, LP obj: 11.0 n_added_paths: 128
at 1 zero_duals: 34
at1, LP obj: 11.0 n_added_paths: 207
at 1 zero_duals: 27
at1, LP obj: 11.0 n_added_paths: 273
at 1 zero_duals: 20
at1, LP obj: 11.0 n_added_paths: 364
at 1 zero_duals: 18
at1, LP obj: 10.530836721592125 n_added_paths: 383
at 1 zero_duals: 14
at1, LP obj: 10.12370380218027 n_added_paths: 192
at 1 zero_duals: 11
at1, LP obj: 9.933440906204233 n_added_paths: 114
at 1 zero_duals: 11
at1, LP obj: 9.581037213864898 n_added_paths: 126
at 1 zero_duals: 10
at1, LP obj: 9.400910409684359 n_added_paths: 60
at 1 zero_duals: 9
at1, LP obj: 9.262134425274557 n_added_paths: 41
at 1 zero_duals: 8
at1, LP obj: 9.150887187149795 n_added_paths: 27
at 1 zero_duals: 10
at1, LP obj: 9.111243662391887 n_added_paths: 14
at 1 zero_duals: 9
at1, LP obj: 9.077429467084638 n_added_paths: 6
at 1 zero_duals: 11
at1, LP obj: 9.07742946708464 n_added_paths: 3
at 1 zero_duals: 10
Switching to elementary pricing
at1, LP obj: 9.077352637021717 n_added_paths: 3
updated lowerbound from 1.0 to 10
Gap too small = 0, stopping pricing with lb = 10
Gap too small = 0, stopping pricing with lb = 10
Gap too small = 0, stopping pricing with lb = 10
Gap too small = 0, stopping pricing with lb = 10
Gap too small = 0, stopping pricing with lb = 10
Gap too small = 0, stopping pricing with lb = 10
Gap too small = 0, stopping pricing with lb = 10
Gap too small = 0, stopping pricing with lb = 10
Gap too small = 0, stopping pricing with lb = 10
Gap too small = 0, stopping pricing with lb = 10
Gap too small = 0, stopping pricing with lb = 10
Gap too small = 0, stopping pricing with lb = 10
Gap too small = 0, stopping pricing with lb = 10
Gap too small = 0, stopping pricing with lb = 10
Gap too small = 0, stopping pricing with lb = 10
Gap too small = 0, stopping pricing with lb = 10
Gap too small = 0, stopping pricing with lb = 10
at 29 zero_duals: 25
at29, LP obj: 10.350877192982455 n_added_paths: 89
Gap too small = 0, stopping pricing with lb = 10
Gap too small = 0, stopping pricing with lb = 10
Gap too small = 0, stopping pricing with lb = 10
Gap too small = 0, stopping pricing with lb = 10
Gap too small = 0, stopping pricing with lb = 10
Gap too small = 0, stopping pricing with lb = 10
at 39 zero_duals: 26
at39, LP obj: 10.151515151515152 n_added_paths: 75
Gap too small = 0, stopping pricing with lb = 10
Gap too small = 0, stopping pricing with lb = 10
Gap too small = 0, stopping pricing with lb = 10
Gap too small = 0, stopping pricing with lb = 10
Gap too small = 0, stopping pricing with lb = 10
Gap too small = 0, stopping pricing with lb = 10
Gap too small = 0, stopping pricing with lb = 10
Gap too small = 0, stopping pricing with lb = 10
Gap too small = 0, stopping pricing with lb = 10
Gap too small = 0, stopping pricing with lb = 10
Gap too small = 0, stopping pricing with lb = 10
Gap too small = 0, stopping pricing with lb = 10
Gap too small = 0, stopping pricing with lb = 10
at 72 zero_duals: 21
at72, LP obj: 10.189655172413794 n_added_paths: 143
Gap too small = 0, stopping pricing with lb = 10
Gap too small = 0, stopping pricing with lb = 10
Gap too small = 0, stopping pricing with lb = 10
Gap too small = 0, stopping pricing with lb = 10
Gap too small = 0, stopping pricing with lb = 10
Gap too small = 0, stopping pricing with lb = 10
Gap too small = 0, stopping pricing with lb = 10
Gap too small = 0, stopping pricing with lb = 10
at 88 zero_duals: 21
at88, LP obj: 10.614649681528663 n_added_paths: 107
Gap too small = 0, stopping pricing with lb = 10
Gap too small = 0, stopping pricing with lb = 10
Best solution found:
t_[57, 19, 57] 1.0 1.0
checking cycle [57, 19, 57]
[57, 19, 57] 254 160
[62, 16, 58, 21, 7, 62] 1.0 1.0
checking cycle [62, 16, 58, 21, 7, 62]
[62, 16, 58, 21, 7, 62] 237 216
[26, 4, 23, 12, 26] 1.0 1.0
checking cycle [26, 4, 23, 12, 26]
[26, 4, 23, 12, 26] 365 321
[55, 27, 15, 53, 34, 36, 55] 1.0 1.0
checking cycle [55, 27, 15, 53, 34, 36, 55]
[55, 27, 15, 53, 34, 36, 55] 256 238
[64, 49, 8, 50, 9, 13, 32, 22, 63, 64] 1.0 1.0
checking cycle [64, 49, 8, 50, 9, 13, 32, 22, 63, 64]
[64, 49, 8, 50, 9, 13, 32, 22, 63, 64] 229 223
[59, 10, 56, 40, 43, 52, 35, 59] 1.0 1.0
checking cycle [59, 10, 56, 40, 43, 52, 35, 59]
[59, 10, 56, 40, 43, 52, 35, 59] 249 242
[51, 41, 42, 11, 30, 39, 0, 33, 2, 51] 1.0 1.0
checking cycle [51, 41, 42, 11, 30, 39, 0, 33, 2, 51]
[51, 41, 42, 11, 30, 39, 0, 33, 2, 51] 265 254
[61, 45, 17, 46, 6, 47, 37, 54, 20, 61] 1.0 1.0
checking cycle [61, 45, 17, 46, 6, 47, 37, 54, 20, 61]
[61, 45, 17, 46, 6, 47, 37, 54, 20, 61] 245 223
[48, 5, 38, 1, 14, 3, 28, 48] 1.0 1.0
checking cycle [48, 5, 38, 1, 14, 3, 28, 48]
[48, 5, 38, 1, 14, 3, 28, 48] 275 266
[60, 18, 29, 24, 44, 31, 25, 60] 1.0 1.0
checking cycle [60, 18, 29, 24, 44, 31, 25, 60]
[60, 18, 29, 24, 44, 31, 25, 60] 247 236
